int NumberPatients = 165
int NumberOfRooms = 1
int NumberSurgeons = 26
int NumberOfDays = 6
Duration = [72,66,32,47,157,64,46,58,238,132,119,53,72,93,47,32,201,98,103,72,119,68,103,39,119,119,131,93,119,66,72,60,30,66,166,32,39,98,32,50,117,47,53,47,98,72,98,98,138,79,117,68,47,60,68,47,131,205,66,103,32,119,159,31,59,30,98,41,47,98,67,60,105,264,32,238,252,98,66,198,41,103,210,130,198,92,119,31,66,47,47,201,46,50,50,32,47,119,32,98,119,117,32,103,66,60,67,32,119,46,74,32,68,103,32,72,47,105,66,105,132,65,120,61,119,32,272,272,46,103,114,66,238,119,210,72,79,50,32,98,201,31,131,47,76,47,131,159,66,107,32,60,66,166,32,47,32,58,119,39,103,53,47,103,201];
Priority = [0,0,0,0,0,0,0,0,0,0,0,0,0,0,0,0,0,0,0,0,0,0,0,0,0,0,0,0,0,0,0,0,0,0,0,0,0,0,0,0,0,0,0,0,0,0,0,0,0,0,0,0,0,0,0,0,0,0,0,0,1,0,0,0,0,0,0,0,0,0,0,0,0,0,0,0,0,0,0,0,0,0,0,0,0,0,0,0,0,0,0,0,0,0,0,0,0,0,0,0,0,0,0,0,0,0,0,0,0,0,0,0,0,0,0,0,0,0,0,0,0,0,0,0,0,0,0,0,0,0,0,0,0,0,0,0,0,0,0,0,0,0,0,0,0,0,0,0,0,0,0,0,0,1,0,0,0,0,0,0,0,0,0,0,0];
Waiting = [137,63,148,23,354,162,150,123,60,361,107,25,534,366,134,134,161,190,45,80,248,200,63,163,487,158,113,317,23,242,177,106,43,141,94,25,179,116,51,214,164,64,297,135,39,281,1096,247,57,95,44,73,275,30,141,56,60,1047,67,53,21,46,507,150,31,37,30,169,95,63,30,120,556,35,21,30,123,70,35,172,24,99,66,148,169,148,66,319,22,288,499,84,79,120,63,548,52,79,113,289,52,275,80,133,120,32,389,312,99,158,221,218,70,43,80,120,23,375,198,51,464,84,52,95,32,354,45,155,148,71,191,59,50,99,1096,37,63,80,190,480,186,30,169,141,141,116,366,338,70,281,221,23,107,84,59,120,31,178,56,155,137,288,39,387,37];
Surgeon = [7,6,4,4,5,6,2,6,3,4,2,4,4,1,1,3,2,1,12,7,5,6,5,1,8,4,5,1,5,6,3,5,5,8,6,11,6,4,4,5,13,5,1,3,4,5,3,3,10,2,2,3,12,6,8,1,4,2,6,1,4,1,7,5,4,5,1,4,3,6,2,4,1,4,2,2,5,6,8,1,4,6,3,1,7,3,5,1,6,5,4,7,5,5,5,11,6,1,6,1,1,1,1,5,3,15,15,10,4,4,8,3,3,1,2,4,4,10,1,6,1,6,1,6,5,1,5,10,5,6,2,7,6,7,3,3,7,3,4,6,2,1,6,3,12,3,8,3,4,4,1,3,2,4,1,6,6,3,4,3,1,3,4,5,3];
BlockAvailability = [[[0,1]],[[0,0]],[[1,1]],[[0,0]],[[0,0]],[[0,0]]];
SurgeonAvailability = [[[1,0],[1,1],[1,0],[1,1],[1,1],[1,0]],[[1,1],[1,1],[1,1],[1,1],[1,1],[0,0]],[[1,1],[0,1],[0,1],[1,1],[1,1],[0,1]],[[1,0],[1,1],[1,0],[0,1],[1,0],[1,0]],[[0,0],[0,1],[1,1],[1,1],[1,0],[0,1]],[[1,0],[1,0],[0,0],[1,0],[0,1],[1,1]],[[1,1],[0,0],[1,1],[1,1],[1,1],[1,1]],[[0,1],[1,1],[0,1],[1,1],[1,1],[1,1]],[[1,1],[0,0],[1,1],[0,1],[1,1],[1,1]],[[1,1],[1,1],[0,1],[1,1],[0,1],[1,1]],[[1,1],[1,0],[0,1],[1,1],[1,1],[1,1]],[[0,1],[1,1],[1,0],[1,0],[0,1],[0,0]],[[0,1],[1,1],[1,1],[1,1],[1,1],[0,1]],[[1,1],[1,1],[1,1],[0,1],[1,1],[1,1]],[[1,1],[1,1],[0,1],[1,1],[1,0],[1,1]],[[0,1],[1,1],[1,0],[0,1],[0,0],[1,1]],[[1,1],[1,1],[0,1],[1,1],[1,1],[0,1]],[[1,1],[0,1],[1,1],[1,1],[0,0],[1,1]],[[0,1],[1,1],[1,0],[1,1],[1,0],[1,1]],[[1,1],[1,0],[1,1],[1,0],[1,1],[1,0]],[[0,1],[0,1],[1,1],[1,1],[1,0],[0,1]],[[0,1],[1,1],[1,1],[1,0],[1,1],[1,1]],[[1,0],[0,1],[1,1],[1,1],[1,1],[1,1]],[[1,1],[1,1],[1,1],[1,0],[0,1],[1,1]],[[1,1],[1,0],[1,1],[1,1],[1,0],[1,1]],[[0,1],[1,1],[1,0],[1,0],[0,1],[0,1]]];
